
(set-logic BV)

(define-fun shr1 ((x (BitVec 64))) (BitVec 64) (bvlshr x #x0000000000000001))
(define-fun shr4 ((x (BitVec 64))) (BitVec 64) (bvlshr x #x0000000000000004))
(define-fun shr16 ((x (BitVec 64))) (BitVec 64) (bvlshr x #x0000000000000010))
(define-fun shl1 ((x (BitVec 64))) (BitVec 64) (bvshl x #x0000000000000001))
(define-fun if0 ((x (BitVec 64)) (y (BitVec 64)) (z (BitVec 64))) (BitVec 64) (ite (= x #x0000000000000001) y z))
(define-fun func22  ((A (BitVec 64)) ) (BitVec 64) (bvand A  #x0000000000000001 ))
(define-fun func23  ((A (BitVec 64)) (B (BitVec 64)) (C (BitVec 64)) ) (BitVec 64) (bvand (bvlshr B  C ) A ))
(define-fun func24  ((A (BitVec 64)) (B (BitVec 64)) ) (BitVec 64) (bvand (bvlshr B  #x0000000000000001 ) A ))
(define-fun func25  ((A (BitVec 64)) (B (BitVec 64)) ) (BitVec 64) (bvand (bvlshr B  #x0000000000000010 ) A ))
(define-fun func26  ((A (BitVec 64)) (B (BitVec 64)) ) (BitVec 64) (bvand (bvlshr B  #x0000000000000004 ) A ))
(define-fun func27  ((A (BitVec 64)) (B (BitVec 64)) (C (BitVec 64)) (D (BitVec 64)) ) (BitVec 64) (bvand (bvlshr (bvlshr C  D ) B ) A ))
(define-fun func28  ((A (BitVec 64)) (B (BitVec 64)) ) (BitVec 64) (bvand (bvlshr A  B ) #x0000000000000001 ))
(define-fun func29  ((A (BitVec 64)) (B (BitVec 64)) ) (BitVec 64) (bvlshr A  B ))
(define-fun func30  ((A (BitVec 64)) (B (BitVec 64)) (C (BitVec 64)) ) (BitVec 64) (bvlshr (bvlshr B  C ) A ))
(define-fun func31  ((A (BitVec 64)) (B (BitVec 64)) ) (BitVec 64) (bvlshr (bvlshr B  #x0000000000000010 ) A ))
(define-fun func32  ((A (BitVec 64)) (B (BitVec 64)) ) (BitVec 64) (bvlshr (bvlshr B  #x0000000000000004 ) A ))
(define-fun func33  ((A (BitVec 64)) (B (BitVec 64)) (C (BitVec 64)) (D (BitVec 64)) ) (BitVec 64) (bvlshr (bvlshr (bvlshr C  D ) B ) A ))
(define-fun func34  ((A (BitVec 64)) (B (BitVec 64)) (C (BitVec 64)) ) (BitVec 64) (bvlshr (bvlshr (bvlshr C  #x0000000000000010 ) B ) A ))
(define-fun func35  ((A (BitVec 64)) (B (BitVec 64)) ) (BitVec 64) (bvlshr (bvlshr B  #x0000000000000001 ) A ))
(define-fun func36  ((A (BitVec 64)) (B (BitVec 64)) ) (BitVec 64) (bvlshr (bvlshr A  B ) #x0000000000000001 ))
(define-fun func37  ((A (BitVec 64)) (B (BitVec 64)) ) (BitVec 64) (bvlshr (bvlshr A  B ) #x0000000000000004 ))
(define-fun func38  ((A (BitVec 64)) (B (BitVec 64)) (C (BitVec 64)) ) (BitVec 64) (bvlshr (bvshl B  C ) A ))
(define-fun func39  ((A (BitVec 64)) (B (BitVec 64)) ) (BitVec 64) (bvlshr (bvshl B  #x0000000000000001 ) A ))
(define-fun func40  ((A (BitVec 64)) (B (BitVec 64)) ) (BitVec 64) (bvlshr (bvnot B ) A ))
(define-fun func41  ((A (BitVec 64)) ) (BitVec 64) (bvlshr (bvnot A ) #x0000000000000010 ))
(define-fun func42  ((A (BitVec 64)) (B (BitVec 64)) (C (BitVec 64)) ) (BitVec 64) (bvlshr (bvadd B  C ) A ))
(define-fun func44  ((A (BitVec 64)) (B (BitVec 64)) (C (BitVec 64)) ) (BitVec 64) (bvshl (bvlshr B  C ) A ))
(define-fun func45  ((A (BitVec 64)) (B (BitVec 64)) ) (BitVec 64) (bvshl (bvlshr B  #x0000000000000001 ) A ))
(define-fun func46  ((A (BitVec 64)) (B (BitVec 64)) ) (BitVec 64) (bvshl (bvlshr A  B ) #x0000000000000001 ))
(define-fun func47  ((A (BitVec 64)) (B (BitVec 64)) ) (BitVec 64) (bvshl (bvnot B ) A ))
(define-fun func48  ((A (BitVec 64)) ) (BitVec 64) (bvshl (bvnot A ) #x0000000000000001 ))
(define-fun func50  ((A (BitVec 64)) ) (BitVec 64) (bvnot (bvshl A  #x0000000000000001 )))
(define-fun func51  ((A (BitVec 64)) ) (BitVec 64) (bvadd A  #x0000000000000001 ))
(define-fun func52  ((A (BitVec 64)) (B (BitVec 64)) (C (BitVec 64)) ) (BitVec 64) (bvadd (bvlshr B  C ) A ))
(define-fun func53  ((A (BitVec 64)) (B (BitVec 64)) (C (BitVec 64)) ) (BitVec 64) (bvadd (bvshl B  C ) A ))
(define-fun func54  ((A (BitVec 64)) (B (BitVec 64)) ) (BitVec 64) (bvadd (bvshl B  #x0000000000000001 ) A ))
(define-fun func55  ((A (BitVec 64)) ) (BitVec 64) (bvor A  #x0000000000000001 ))
(define-fun func56  ((A (BitVec 64)) (B (BitVec 64)) (C (BitVec 64)) ) (BitVec 64) (bvor (bvlshr B  C ) A ))
(synth-fun f ( (x (BitVec 64))) (BitVec 64)
(
(Start (BitVec 64) (
   #x0000000000000000
   #x0000000000000001
   x
   (func22 Start)
   (func23 Start Start Start)
   (func24 Start Start)
   (func25 Start Start)
   (func26 Start Start)
   (func27 Start Start Start Start)
   (func30 Start Start Start)
   (func31 Start Start)
   (func32 Start Start)
   (func36 Start Start)
   (func37 Start Start)
   (func38 Start Start Start)
   (func41 Start)
   (func42 Start Start Start)
   (func46 Start Start)
   (func51 Start)
   (func52 Start Start Start)
   (func56 Start Start Start)
   (bvnot Start)
   (shl1 Start)
   (shr4 Start)
   (if0 Start Start Start)
))
))
(constraint (= (f #x8e5e34875ee2a89a) #x060e10030e600008))
(constraint (= (f #x5a87c2622d3e6a7f) #x0803c020041e203f))
(constraint (= (f #xb7dfe9e2254a3287) #x13cfe0e000001003))
(constraint (= (f #x6a17ff449ed020c8) #x2003ff000e400040))
(constraint (= (f #x7d09f4601ec81418) #x3c00f0200e400008))
(constraint (= (f #x2ad1a31cacd380fb) #x0040810c04418079))
(constraint (= (f #x5e657ce2c75d3af8) #x0e203c60430c1878))
(constraint (= (f #xceb47577722f664c) #x4610303330072204))
(constraint (= (f #x5a5cf8bce795a035) #x080c781c63808010))
(constraint (= (f #xbe1b0104dc53d818) #x1e0900004c01c808))
(constraint (= (f #x0000000000000001) #x0000000000000000))
(constraint (= (f #x9f4b99e8b562964c) #x09f4b99e8b562964))
(constraint (= (f #x930a4fd9dac21446) #x0930a4fd9dac2144))
(constraint (= (f #xc3068e1ce8d850fd) #x0c3068e1ce8d850f))
(constraint (= (f #x0c72a26c0dc6f462) #x00c72a26c0dc6f46))
(constraint (= (f #x7bd72def35d8bcf3) #x07bd72def35d8bcf))
(constraint (= (f #x3b7aa852a52a3db9) #x1dbd542952951edc))
(constraint (= (f #xb7a383173bbedf04) #x5bd1c18b9ddf6f82))
(constraint (= (f #x4195e665d4beb94b) #x20caf332ea5f5ca5))
(constraint (= (f #x8c24aa780c541bab) #x4612553c062a0dd5))
(constraint (= (f #xd3e62c9b5608bb42) #x69f3164dab045da1))
(constraint (= (f #xc9f5da32183b7401) #x0c9f5da32183b740))
(constraint (= (f #x21e4f667cd5744c6) #x021e4f667cd5744c))
(constraint (= (f #xcd781a029e1b287c) #x0cd781a029e1b287))
(constraint (= (f #xa2ee5aa95a2da651) #x0a2ee5aa95a2da65))
(constraint (= (f #x4586749a87557844) #x04586749a8755784))
(constraint (= (f #xf206ed507bc7f368) #x790376a83de3f9b4))
(constraint (= (f #xe85ddba08ebfc5d1) #x742eedd0475fe2e8))
(constraint (= (f #x7a013a2335330dac) #x3d009d119a9986d6))
(constraint (= (f #x8800bc92891d7707) #x44005e49448ebb83))
(constraint (= (f #x01f6c36d7a616d44) #x00fb61b6bd30b6a2))
(constraint (= (f #xf0f0f0f0f0f0f0f2) #x7070707070707070))
(constraint (= (f #x9f57c53f0dece7c1) #x09f57c53f0dece7c))
(constraint (= (f #xaf95dd530bb699cd) #x0af95dd530bb699c))
(constraint (= (f #x91d59838c66ce77f) #x091d59838c66ce77))
(constraint (= (f #x0733d83344286710) #x00733d8334428671))
(constraint (= (f #x896ece21567c6bc5) #x0896ece21567c6bc))
(constraint (= (f #x6baa58325b751967) #x06baa58325b75196))
(constraint (= (f #x40c25ecc0807b93f) #x040c25ecc0807b93))
(constraint (= (f #x748c02a686412fa6) #x0748c02a686412fa))
(constraint (= (f #xc438975c0efb5d15) #x0c438975c0efb5d1))
(constraint (= (f #x94da4caf8f7f87f9) #x094da4caf8f7f87f))
(constraint (= (f #xffffffffffffffde) #x0000000000000000))
(constraint (= (f #xffffffffffffffeb) #x0000000000000000))
(constraint (= (f #xffffffffffffffe7) #x0000000000000000))
(constraint (= (f #xffffffffffffffdf) #x0000000000000000))
(check-synth)
